c description: Random 3-CNF over 24 variables and 102 clauses
c generator: CNFgen (0.9.2)
c copyright: (C) 2012-2022 Massimo Lauria <massimo.lauria@uniroma1.it>
c url: https://massimolauria.net/cnfgen
c command line: cnfgen --output CNF_4.28/24_bit_102_911.cnf randkcnf 3 24 102
c
p cnf 24 102
5 -12 24 0
1 -20 24 0
8 -13 24 0
6 -8 -18 0
-3 -19 23 0
-2 14 -23 0
-12 -14 16 0
13 21 -22 0
-13 22 24 0
8 18 -23 0
-2 13 17 0
-8 -12 13 0
14 -22 -23 0
-2 5 -14 0
-2 12 -15 0
2 9 -18 0
-14 17 19 0
7 10 13 0
1 -15 -17 0
4 13 -15 0
5 -17 20 0
-2 13 -24 0
6 11 -12 0
12 13 -22 0
-16 -17 19 0
2 13 18 0
-7 9 -20 0
-1 4 23 0
2 5 14 0
-4 -8 19 0
-7 14 -20 0
3 11 20 0
-1 15 21 0
5 -8 18 0
-14 20 -23 0
7 -10 -24 0
8 17 -23 0
2 -4 -22 0
-8 -10 -24 0
1 -6 23 0
1 2 -19 0
9 -16 24 0
5 -12 -17 0
4 -14 20 0
2 20 -21 0
11 15 18 0
5 12 23 0
2 -3 -23 0
5 -9 12 0
6 -14 19 0
8 16 -20 0
1 -19 -21 0
2 15 24 0
-8 20 -21 0
4 8 -11 0
10 -11 -14 0
2 15 -22 0
-8 -20 -23 0
11 -18 24 0
-16 19 -22 0
-12 -17 -24 0
12 17 24 0
1 -4 11 0
11 -21 23 0
-5 17 24 0
3 -12 19 0
-8 -9 16 0
-13 -14 -23 0
2 3 16 0
3 -19 -22 0
5 -7 8 0
3 10 -18 0
-12 -14 -17 0
5 10 11 0
-4 -11 24 0
-1 12 -22 0
-9 15 20 0
-2 9 15 0
5 -9 13 0
-2 -13 16 0
-1 5 -16 0
-13 -17 23 0
-2 -20 -21 0
-3 -15 18 0
6 7 -10 0
-1 7 14 0
-9 16 18 0
6 8 -17 0
11 -12 -21 0
-6 -15 18 0
-15 17 18 0
3 -15 17 0
-6 11 21 0
12 -17 19 0
-5 -12 -23 0
4 12 24 0
3 -20 -23 0
-4 -6 7 0
-6 -23 -24 0
6 11 -19 0
6 10 18 0
7 12 -21 0
